c turning on binary mode checking
c parsing input formula with 202048 variables and 780985 clauses
c finished parsing, read 16609302 bytes from proof file
c detected empty clause; start verification via backward checking
c 11182 of 780985 clauses in core                            
c 13204 of 450806 lemmas in core using 130779 resolution steps
c 0 RAT lemmas in core; 972 redundant literals in core lemmas
s VERIFIED
c verification time: 2.196 seconds
